
Gurobi 9.1.2 (linux64) logging started Wed Nov 24 10:26:38 2021

Changed value of parameter LogFile to lemke_square_v-(1, 3).log-s20-l10.log
   Prev:   Default: 
Changed value of parameter Threads to 32
   Prev: 0  Min: 0  Max: 1024  Default: 0
Changed value of parameter TimeLimit to 3600.0
   Prev: inf  Min: 0.0  Max: inf  Default: inf
Changed value of parameter MIPGap to 0.4
   Prev: 0.0001  Min: 0.0  Max: inf  Default: 0.0001
Warning: variable name "X[(7, 4),(7, 3)]" has a space
Warning: constraint name "flow-constr-t0-v(3, 0)" has a space
Warning: to let Gurobi read it back, use rlp format
Gurobi Optimizer version 9.1.2 build v9.1.2rc0 (linux64)
Thread count: 16 physical cores, 32 logical processors, using up to 32 threads
Optimize a model with 6013 rows, 5440 columns and 20670 nonzeros
Model fingerprint: 0xc21756f5
Variable types: 0 continuous, 5440 integer (4800 binary)
Coefficient statistics:
  Matrix range     [1e+00, 1e+03]
  Objective range  [1e-01, 1e-01]
  Bounds range     [1e+00, 5e+02]
  RHS range        [1e+00, 1e+03]
Presolve removed 457 rows and 490 columns
Presolve time: 0.04s
Presolved: 5556 rows, 4950 columns, 18510 nonzeros
Variable types: 0 continuous, 4950 integer (4310 binary)

Root relaxation: objective 6.400000e+01, 127 iterations, 0.00 seconds

    Nodes    |    Current Node    |     Objective Bounds      |     Work
 Expl Unexpl |  Obj  Depth IntInf | Incumbent    BestBd   Gap | It/Node Time

     0     0   64.00000    0   42          -   64.00000      -     -    0s
     0     0   64.00000    0  111          -   64.00000      -     -    0s
     0     0   64.00000    0   44          -   64.00000      -     -    0s
     0     0   64.00000    0   58          -   64.00000      -     -    0s
     0     0   64.00000    0   63          -   64.00000      -     -    0s
H    0     0                    3701.0000000   64.00000  98.3%     -    0s
     0     0   64.00000    0   46 3701.00000   64.00000  98.3%     -    0s
H    0     0                     150.6000000   64.00000  57.5%     -    0s
     0     2   64.00000    0   45  150.60000   64.00000  57.5%     -    0s
H   32    64                     145.8000000   64.00000  56.1%  51.0    1s
H   33    64                     129.4000000   64.00000  50.5%  51.5    1s
H   59    64                     124.4000000   64.00000  48.6%  54.7    1s
H   95   128                     122.1000000   64.00000  47.6%  49.2    3s
H   96   128                     121.7000000   64.00000  47.4%  49.2    3s
H   98   128                     121.6000000   64.00000  47.4%  48.8    3s
H  100   128                     108.7000000   64.00000  41.1%  47.8    3s
H 3355  4378                     100.6000000   64.00000  36.4%  15.8    5s
H 3571  4378                     100.1000000   64.00000  36.1%  15.1    5s
H 3624  4378                      99.4000000   64.00000  35.6%  15.0    5s
H 3624  4361                      99.0000000   64.00000  35.4%  15.0    5s
H 3676  4339                      94.2000000   64.00000  32.1%  14.8    5s

Cutting planes:
  Gomory: 2
  Cover: 179
  Implied bound: 261
  Clique: 8
  MIR: 33
  StrongCG: 1
  Flow cover: 19
  Zero half: 1
  RLT: 15
  Relax-and-lift: 40

Explored 4712 nodes (65945 simplex iterations) in 5.26 seconds
Thread count was 32 (of 32 available processors)

Solution count 10: 94.2 99 99.4 ... 124.4

Optimal solution found (tolerance 4.00e-01)
Best objective 9.420000000000e+01, best bound 6.400000000000e+01, gap 32.0594%

Gurobi 9.1.2 (linux64) logging started Wed Nov 24 10:31:59 2021

Changed value of parameter LogFile to lemke_square_v-(1, 3).log-s20-l10.log
   Prev:   Default: 
Changed value of parameter Threads to 32
   Prev: 0  Min: 0  Max: 1024  Default: 0
Changed value of parameter TimeLimit to 3600.0
   Prev: inf  Min: 0.0  Max: inf  Default: inf
Changed value of parameter MIPGap to 0.4
   Prev: 0.0001  Min: 0.0  Max: inf  Default: 0.0001
Warning: variable name "X[(7, 4),(7, 3)]" has a space
Warning: constraint name "flow-constr-t0-v(3, 0)" has a space
Warning: to let Gurobi read it back, use rlp format
Gurobi Optimizer version 9.1.2 build v9.1.2rc0 (linux64)
Thread count: 16 physical cores, 32 logical processors, using up to 32 threads
Optimize a model with 6013 rows, 5440 columns and 20670 nonzeros
Model fingerprint: 0xc21756f5
Variable types: 0 continuous, 5440 integer (4800 binary)
Coefficient statistics:
  Matrix range     [1e+00, 1e+03]
  Objective range  [1e-01, 1e-01]
  Bounds range     [1e+00, 5e+02]
  RHS range        [1e+00, 1e+03]
Presolve removed 457 rows and 490 columns
Presolve time: 0.04s
Presolved: 5556 rows, 4950 columns, 18510 nonzeros
Variable types: 0 continuous, 4950 integer (4310 binary)

Root relaxation: objective 6.400000e+01, 127 iterations, 0.00 seconds

    Nodes    |    Current Node    |     Objective Bounds      |     Work
 Expl Unexpl |  Obj  Depth IntInf | Incumbent    BestBd   Gap | It/Node Time

     0     0   64.00000    0   42          -   64.00000      -     -    0s
     0     0   64.00000    0  111          -   64.00000      -     -    0s
     0     0   64.00000    0   44          -   64.00000      -     -    0s
     0     0   64.00000    0   58          -   64.00000      -     -    0s
     0     0   64.00000    0   63          -   64.00000      -     -    0s
H    0     0                    3701.0000000   64.00000  98.3%     -    0s
     0     0   64.00000    0   46 3701.00000   64.00000  98.3%     -    0s
H    0     0                     150.6000000   64.00000  57.5%     -    0s
     0     2   64.00000    0   45  150.60000   64.00000  57.5%     -    0s
H   32    64                     145.8000000   64.00000  56.1%  51.0    1s
H   33    64                     129.4000000   64.00000  50.5%  51.5    1s
H   59    64                     124.4000000   64.00000  48.6%  54.7    1s
H   95   128                     122.1000000   64.00000  47.6%  49.2    3s
H   96   128                     121.7000000   64.00000  47.4%  49.2    3s
H   98   128                     121.6000000   64.00000  47.4%  48.8    3s
H  100   128                     108.7000000   64.00000  41.1%  47.8    3s
H 3355  4378                     100.6000000   64.00000  36.4%  15.8    5s
H 3571  4378                     100.1000000   64.00000  36.1%  15.1    5s
H 3624  4378                      99.4000000   64.00000  35.6%  15.0    5s
H 3624  4361                      99.0000000   64.00000  35.4%  15.0    5s
H 3676  4339                      94.2000000   64.00000  32.1%  14.8    5s

Cutting planes:
  Gomory: 2
  Cover: 179
  Implied bound: 261
  Clique: 8
  MIR: 33
  StrongCG: 1
  Flow cover: 19
  Zero half: 1
  RLT: 15
  Relax-and-lift: 40

Explored 4712 nodes (65945 simplex iterations) in 5.29 seconds
Thread count was 32 (of 32 available processors)

Solution count 10: 94.2 99 99.4 ... 124.4

Optimal solution found (tolerance 4.00e-01)
Best objective 9.420000000000e+01, best bound 6.400000000000e+01, gap 32.0594%

Gurobi 9.1.2 (linux64) logging started Wed Nov 24 11:40:43 2021

Changed value of parameter LogFile to lemke_square_v-(1, 3).log-s20-l10.log
   Prev:   Default: 
Changed value of parameter Threads to 32
   Prev: 0  Min: 0  Max: 1024  Default: 0
Changed value of parameter TimeLimit to 3600.0
   Prev: inf  Min: 0.0  Max: inf  Default: inf
Changed value of parameter MIPGap to 0.3
   Prev: 0.0001  Min: 0.0  Max: inf  Default: 0.0001
Warning: variable name "X[(7, 4),(7, 3)]" has a space
Warning: constraint name "flow-constr-t0-v(3, 0)" has a space
Warning: to let Gurobi read it back, use rlp format
Gurobi Optimizer version 9.1.2 build v9.1.2rc0 (linux64)
Thread count: 16 physical cores, 32 logical processors, using up to 32 threads
Optimize a model with 6013 rows, 5440 columns and 20670 nonzeros
Model fingerprint: 0xc21756f5
Variable types: 0 continuous, 5440 integer (4800 binary)
Coefficient statistics:
  Matrix range     [1e+00, 1e+03]
  Objective range  [1e-01, 1e-01]
  Bounds range     [1e+00, 5e+02]
  RHS range        [1e+00, 1e+03]
Presolve removed 457 rows and 490 columns
Presolve time: 0.04s
Presolved: 5556 rows, 4950 columns, 18510 nonzeros
Variable types: 0 continuous, 4950 integer (4310 binary)

Root relaxation: objective 6.400000e+01, 127 iterations, 0.00 seconds

    Nodes    |    Current Node    |     Objective Bounds      |     Work
 Expl Unexpl |  Obj  Depth IntInf | Incumbent    BestBd   Gap | It/Node Time

     0     0   64.00000    0   42          -   64.00000      -     -    0s
     0     0   64.00000    0  111          -   64.00000      -     -    0s
     0     0   64.00000    0   44          -   64.00000      -     -    0s
     0     0   64.00000    0   58          -   64.00000      -     -    0s
     0     0   64.00000    0   63          -   64.00000      -     -    0s
H    0     0                    3701.0000000   64.00000  98.3%     -    0s
     0     0   64.00000    0   46 3701.00000   64.00000  98.3%     -    0s
H    0     0                     150.6000000   64.00000  57.5%     -    0s
     0     2   64.00000    0   45  150.60000   64.00000  57.5%     -    0s
H   32    64                     145.8000000   64.00000  56.1%  51.0    1s
H   33    64                     129.4000000   64.00000  50.5%  51.5    1s
H   59    64                     124.4000000   64.00000  48.6%  54.7    1s
H   95   128                     122.1000000   64.00000  47.6%  49.2    3s
H   96   128                     121.7000000   64.00000  47.4%  49.2    3s
H   98   128                     121.6000000   64.00000  47.4%  48.8    3s
H  100   128                     108.7000000   64.00000  41.1%  47.8    3s
H 3355  4378                     100.6000000   64.00000  36.4%  15.8    5s
H 3571  4378                     100.1000000   64.00000  36.1%  15.1    5s
H 3624  4378                      99.4000000   64.00000  35.6%  15.0    5s
H 3624  4361                      99.0000000   64.00000  35.4%  15.0    5s
H 3676  4339                      94.2000000   64.00000  32.1%  14.8    5s
H 7007  8171                      93.6000000   64.00000  31.6%  11.9    6s
H 7205  8065                      92.6000000   64.00000  30.9%  11.7    6s
H 7903  7869                      87.7000000   64.00000  27.0%  11.1    6s

Cutting planes:
  Gomory: 5
  Cover: 240
  Implied bound: 338
  Clique: 8
  MIR: 41
  StrongCG: 2
  Flow cover: 22
  Zero half: 1
  RLT: 16
  Relax-and-lift: 43

Explored 9002 nodes (96213 simplex iterations) in 6.17 seconds
Thread count was 32 (of 32 available processors)

Solution count 10: 87.7 92.6 93.6 ... 121.6

Optimal solution found (tolerance 3.00e-01)
Best objective 8.770000000000e+01, best bound 6.400000000000e+01, gap 27.0239%
